[on. 05. april 15:01:57 +0200 2023]  ./input/alternate_g_np_100/100-1-1.gcc
Set parameter Username
Academic license - for non-commercial use only - expires 2024-03-28
Set parameter TimeLimit to value 1800
Set parameter PreCrush to value 1
Set parameter LazyConstraints to value 1
Gurobi Optimizer version 10.0.1 build v10.0.1rc0 (linux64)

CPU model: AMD Ryzen 9 5950X 16-Core Processor, instruction set [SSE2|AVX|AVX2]
Thread count: 16 physical cores, 32 logical processors, using up to 32 threads

Optimize a model with 106 rows, 700 columns and 1900 nonzeros
Model fingerprint: 0x4bf90f89
Variable types: 0 continuous, 700 integer (700 binary)
Coefficient statistics:
  Matrix range     [1e+00, 1e+00]
  Objective range  [1e+00, 1e+02]
  Bounds range     [1e+00, 1e+00]
  RHS range        [1e+00, 1e+00]
Presolve added 5 rows and 5 columns
Presolve time: 0.00s
Presolved: 111 rows, 705 columns, 1415 nonzeros
Variable types: 0 continuous, 705 integer (700 binary)

Root relaxation: objective 5.258000e+03, 1 iterations, 0.00 seconds (0.00 work units)

    Nodes    |    Current Node    |     Objective Bounds      |     Work
 Expl Unexpl |  Obj  Depth IntInf | Incumbent    BestBd   Gap | It/Node Time

     0     0 5258.00000    0    -          - 5258.00000      -     -    0s
     0     0 5258.00000    0    -          - 5258.00000      -     -    0s
     0     0 5258.00000    0    -          - 5258.00000      -     -    0s
     0     0 5258.00000    0    -          - 5258.00000      -     -    0s
     0     0 5258.00000    0    -          - 5258.00000      -     -    0s
     0     0 5258.00000    0    8          - 5258.00000      -     -    0s
     0     0 5258.00000    0    -          - 5258.00000      -     -    0s
     0     0 5258.00000    0    7          - 5258.00000      -     -    0s
     0     0 5258.00000    0    -          - 5258.00000      -     -    0s
     0     0 5258.00000    0   13          - 5258.00000      -     -    0s
     0     0 5258.00000    0    -          - 5258.00000      -     -    0s
     0     0 5258.00000    0   14          - 5258.00000      -     -    0s
     0     0 5258.00000    0    -          - 5258.00000      -     -    0s
     0     0 5258.00000    0    7          - 5258.00000      -     -    0s
     0     2 5258.00000    0    8          - 5258.00000      -     -    0s
 35661 16322 5258.00000   19   67          - 5258.00000      -  12.2    5s
 65519 40729 4833.00000   44   12          - 5258.00000      -  16.7   10s
 93132 64712 5048.50000   37   61          - 5258.00000      -  21.1   15s
 118595 86684 5144.70833   49   66          - 5258.00000      -  23.5   20s
 144560 109461 4752.00000   52    7          - 5258.00000      -  25.5   25s
 170963 131311 4831.00000   60   53          - 5258.00000      -  27.8   30s
 195075 153767 4795.33333   60   60          - 5253.33333      -  29.8   35s
 219288 171835 4878.75000   51   56          - 5251.00000      -  31.4   40s
 241838 192347 5076.66667   42   90          - 5244.00000      -  33.6   45s
 256052 203152 4994.50000   48    7          - 5241.12500      -  34.8   50s
*256097 193024              29    4729.0000047 4729.00000  0.00%  34.9   51s

Cutting planes:
  User: 10
  Gomory: 63
  Zero half: 21
  Lazy constraints: 5

Explored 256097 nodes (8937610 simplex iterations) in 51.27 seconds (25.59 work units)
Thread count was 32 (of 32 available processors)

Solution count 1: 4729 

Optimal solution found (tolerance 1.00e-04)
Best objective 4.729000004667e+03, best bound 4.729000004667e+03, gap 0.0000%

User-callback calls 517940, time in user-callback 11.64 sec
Minimal separator inequalities added: 257358
Indegree inequalities added: 0
WRONG SOLUTION
[on. 05. april 15:02:48 +0200 2023]  done

